
List of user-set options:

                                    Name   Value                used
                           linear_solver = ma97                  yes
                   linear_system_scaling = none                  yes
                              ma97_order = best                  yes
                              ma97_small = 1e-30                 yes
                            ma97_switch1 = at_start_reuse        yes
                            ma97_switch2 = od_hd_reuse           yes
                                  ma97_u = 0.01                  yes
                               ma97_umax = 0.5                   yes
                                max_iter = 198                   yes
                    max_refinement_steps = 20                    yes
                    min_refinement_steps = 5                     yes
                                 mu_init = 1e-06                 yes
           mu_superlinear_decrease_power = 1.25                  yes
                   nlp_scaling_min_value = 1e-08                 yes
                        option_file_name = ./ipopt.opt           yes
                             output_file = ./tmp/ipopt_output_tmp.output  yes
                      print_user_options = yes                   yes
        required_infeasibility_reduction = 1                      no
                   warm_start_bound_frac = 1e-20                 yes
                   warm_start_bound_push = 1e-20                 yes
                   warm_start_init_point = yes                   yes
              warm_start_mult_bound_push = 1e-20                 yes
                warm_start_mult_init_max = 1e+40                 yes
             warm_start_slack_bound_frac = 1e-20                 yes
             warm_start_slack_bound_push = 1e-20                 yes

******************************************************************************
This program contains Ipopt, a library for large-scale nonlinear optimization.
 Ipopt is released as open source code under the Eclipse Public License (EPL).
         For more information visit http://projects.coin-or.org/Ipopt
******************************************************************************

This is Ipopt version 3.12.10, running with linear solver ma97.

Number of nonzeros in equality constraint Jacobian...:   117140
Number of nonzeros in inequality constraint Jacobian.:      213
Number of nonzeros in Lagrangian Hessian.............:    47462

Total number of variables............................:    29971
                     variables with only lower bounds:    11312
                variables with lower and upper bounds:    15132
                     variables with only upper bounds:        0
Total number of equality constraints.................:    29864
Total number of inequality constraints...............:       25
        inequality constraints with only lower bounds:        4
   inequality constraints with lower and upper bounds:        0
        inequality constraints with only upper bounds:       21

iter    objective    inf_pr   inf_du lg(mu)  ||d||  lg(rg) alpha_du alpha_pr  ls
   0 -1.3141702e-01 3.49e-03 1.00e+00  -6.0 0.00e+00    -  0.00e+00 0.00e+00   0
   1 -1.3141699e-01 3.49e-03 1.00e+00  -6.0 3.97e+02  -4.0 3.20e-08 7.87e-08h  1
   2 -1.3141699e-01 3.49e-03 1.00e+00  -6.0 9.18e+02  -4.5 3.23e-04 6.72e-08f  1
   3 -1.3141687e-01 3.49e-03 1.00e+00  -6.0 2.61e+03    -  8.77e-06 1.06e-04f  1
   4 -1.3141576e-01 1.00e-02 9.99e-01  -6.0 2.47e+04    -  6.97e-04 2.66e-03f  1
   5 -1.3141432e-01 1.00e-02 9.98e-01  -6.0 2.47e+03    -  7.54e-04 1.35e-03f  1
   6 -1.3140710e-01 1.09e-02 1.15e+00  -6.0 3.22e+03    -  3.31e-03 6.12e-03f  1
   7 -1.3139330e-01 1.24e-02 9.85e-01  -6.0 3.54e+03    -  9.99e-03 9.17e-03f  1
   8 -1.3134564e-01 2.14e-01 7.81e+00  -6.0 3.48e+03    -  2.88e-03 3.31e-02f  1
   9 -1.3133888e-01 4.94e-01 7.92e+00  -6.0 3.26e+04    -  3.50e-03 3.99e-03f  1
iter    objective    inf_pr   inf_du lg(mu)  ||d||  lg(rg) alpha_du alpha_pr  ls
  10 -1.3127141e-01 4.80e+01 1.75e+01  -6.0 4.12e+04    -  1.43e-02 4.12e-02f  1
  11 -1.3126955e-01 4.80e+01 1.38e+01  -6.0 2.45e+04    -  2.10e-02 4.32e-03h  1
  12 -1.3123188e-01 4.72e+01 1.48e+01  -6.0 1.07e+04    -  5.11e-03 1.75e-02h  1
  13 -1.3122787e-01 4.68e+01 1.55e+01  -6.0 7.70e+01  -5.0 3.86e-03 9.58e-03h  1
  14 -1.3121840e-01 4.57e+01 1.85e+01  -6.0 7.37e+01  -5.4 9.26e-03 2.34e-02h  1
  15 -1.3117315e-01 4.26e+01 2.94e+01  -6.0 7.47e+01  -5.9 1.60e-02 6.77e-02h  1
  16 -1.3130280e-01 3.96e+01 2.29e+01  -6.0 9.98e+01  -6.4 9.11e-02 7.07e-02h  1
  17 -1.3121863e-01 2.84e+01 7.47e+01  -6.0 5.54e+01  -6.0 2.53e-02 2.81e-01h  1
  18 -1.3157663e-01 2.47e+01 5.39e+01  -6.0 3.87e+01  -6.4 1.88e-01 1.30e-01h  1
  19 -1.3164645e-01 2.30e+01 7.93e+01  -6.0 3.63e+01  -6.9 6.89e-01 6.87e-02h  1
iter    objective    inf_pr   inf_du lg(mu)  ||d||  lg(rg) alpha_du alpha_pr  ls
  20 -1.3176821e-01 2.04e+01 8.12e+01  -6.0 3.33e+01  -7.4 2.61e-01 1.14e-01h  1
  21 -1.3234673e-01 8.59e+01 1.41e+02  -6.0 6.71e+01  -7.9 1.00e+00 7.24e-01h  1
  22 -1.3235227e-01 8.54e+01 1.36e+02  -6.0 2.68e+02  -8.3 1.39e-01 5.70e-03h  1
  23 -1.3235436e-01 8.54e+01 1.35e+02  -6.0 1.58e+03  -8.8 1.35e-02 2.35e-04h  1
  24 -1.3245581e-01 8.44e+01 1.33e+02  -6.0 1.84e+03  -9.3 1.14e-02 1.25e-02f  1
  25 -1.3251921e-01 8.39e+01 1.31e+02  -6.0 1.83e+03  -9.8 2.76e-02 2.99e-02h  1
  26 -1.3287534e-01 6.44e+01 1.05e+02  -6.0 7.08e+02  -9.4 1.16e-01 2.25e-01h  1
  27 -1.3289877e-01 6.27e+01 1.02e+02  -6.0 3.28e+03  -9.8 3.55e-02 2.85e-02h  1
  28 -1.3293415e-01 4.21e+01 7.36e+01  -6.0 2.07e+02  -8.5 1.34e-01 3.29e-01h  1
  29 -1.3304533e-01 3.76e+01 5.15e+01  -6.0 2.38e+01  -7.2 6.83e-01 1.06e-01h  1
iter    objective    inf_pr   inf_du lg(mu)  ||d||  lg(rg) alpha_du alpha_pr  ls
  30 -1.3330123e-01 2.62e+01 3.30e+01  -6.0 1.31e+02  -7.6 7.75e-01 3.04e-01h  1
  31 -1.3344395e-01 1.98e+01 2.45e+01  -6.0 9.29e+02  -8.1 2.48e-01 2.87e-01h  1
  32 -1.3390120e-01 1.77e+01 2.87e+01  -6.0 2.86e+03  -8.6 6.13e-02 1.11e-01h  1
  33 -1.3390429e-01 1.77e+01 2.90e+01  -6.0 1.83e+04    -  1.10e-02 5.04e-04h  1
  34 -1.3393430e-01 1.76e+01 2.90e+01  -6.0 3.20e+05    -  1.67e-03 1.61e-03f  1
  35 -1.3406649e-01 1.71e+01 2.83e+01  -6.0 2.60e+04    -  1.18e-02 2.87e-02h  1
  36 -1.3407489e-01 1.55e+01 3.29e+01  -6.0 4.31e+02  -9.1 9.29e-02 9.50e-02h  1
  37 -1.3409488e-01 1.37e+01 3.70e+01  -6.0 8.00e+02  -9.6 4.31e-01 1.15e-01h  1
  38 -1.3421863e-01 1.27e+01 4.33e+01  -6.0 1.06e+04    -  4.11e-02 7.03e-02h  1
  39 -1.3459703e-01 9.86e+00 7.98e+01  -6.0 4.68e+03    -  4.34e-02 2.17e-01h  1
iter    objective    inf_pr   inf_du lg(mu)  ||d||  lg(rg) alpha_du alpha_pr  ls
  40 -1.3457445e-01 9.72e+00 8.08e+01  -6.0 1.34e+04    -  1.49e-02 1.33e-02h  1
  41 -1.3473329e-01 7.86e+00 7.75e+01  -6.0 4.50e+03    -  2.61e-01 1.87e-01h  1
  42 -1.3498992e-01 9.39e+00 4.87e+01  -6.0 4.08e+03    -  3.91e-01 4.68e-01h  1
  43 -1.3515130e-01 8.86e+00 2.99e+01  -6.0 3.47e+03    -  3.73e-01 4.15e-01h  1
  44 -1.3512918e-01 7.66e+00 2.58e+01  -6.0 9.14e+02 -10.0 1.89e-01 1.35e-01h  1
  45 -1.3520182e-01 6.73e+00 2.16e+01  -6.0 2.14e+03    -  4.71e-01 1.27e-01h  1
  46 -1.3528145e-01 5.23e+00 3.23e+01  -6.0 1.09e+03    -  7.42e-01 3.31e-01h  1
  47 -1.3548730e-01 6.46e+00 3.92e+01  -6.0 8.12e+02    -  2.81e-01 7.78e-01h  1
  48 -1.3548423e-01 6.33e+00 1.59e+01  -6.0 3.80e+02  -7.8 3.10e-03 2.08e-02h  1
  49 -1.3553973e-01 3.36e+00 1.71e+02  -6.0 3.12e+02  -8.3 1.16e-01 4.69e-01h  1
iter    objective    inf_pr   inf_du lg(mu)  ||d||  lg(rg) alpha_du alpha_pr  ls
  50 -1.3556688e-01 4.17e-01 1.58e+01  -6.0 1.38e+02  -8.8 5.74e-01 1.00e+00h  1
  51 -1.3564028e-01 1.24e+00 1.12e+01  -6.0 7.40e+02  -9.2 2.65e-01 2.46e-01h  1
  52 -1.3571558e-01 1.06e+00 5.45e+02  -6.0 9.68e+02  -9.7 4.14e-01 1.49e-01h  1
  53 -1.3578220e-01 9.77e-01 5.93e+02  -6.0 4.08e+02  -9.3 1.00e+00 5.63e-01h  1
  54 -1.3579474e-01 2.61e+00 5.45e+02  -6.0 1.43e+04  -9.8 3.83e-02 4.30e-02h  1
  55 -1.3580218e-01 2.52e+00 5.15e+02  -6.0 8.34e+02  -9.3 8.59e-02 7.95e-02h  1
  56 -1.3582293e-01 2.47e+00 7.01e+02  -6.0 5.86e+03    -  7.08e-02 1.97e-02h  1
  57 -1.3594507e-01 1.98e+00 2.79e+02  -6.0 9.89e+02  -9.8 1.06e-01 3.02e-01f  1
  58 -1.3602076e-01 1.46e+00 1.35e+03  -6.0 1.45e+03 -10.3 5.84e-01 2.41e-01h  1
  59 -1.3605466e-01 9.84e-01 1.44e+05  -6.0 2.32e+01  -6.2 1.16e-02 3.32e-01h  1
iter    objective    inf_pr   inf_du lg(mu)  ||d||  lg(rg) alpha_du alpha_pr  ls
  60 -1.3606295e-01 4.57e-01 6.53e+04  -6.0 4.23e+00  -6.7 5.75e-01 5.45e-01h  1
  61 -1.3606194e-01 1.61e-01 2.23e+04  -6.0 5.65e+00  -7.2 1.00e+00 6.58e-01h  1
  62 -1.3605355e-01 6.77e-03 3.10e+00  -6.0 9.93e+00  -7.7 1.00e+00 1.00e+00h  1
  63 -1.3605076e-01 8.47e-03 1.49e+00  -6.0 2.57e+01  -8.2 6.09e-01 5.07e-01h  1
  64 -1.3604639e-01 2.60e-01 6.64e+00  -6.0 7.06e+01  -8.6 1.00e+00 1.00e+00f  1
  65 -1.3605260e-01 2.70e-01 3.32e+00  -6.0 1.69e+02  -9.1 1.00e+00 8.49e-01h  1
  66 -1.3608882e-01 1.23e-01 3.30e+00  -6.0 4.19e+02  -9.6 1.00e+00 1.00e+00f  1
  67 -1.3618151e-01 7.87e-01 5.92e-01  -6.0 9.79e+02 -10.1 1.00e+00 1.00e+00h  1
  68 -1.3636401e-01 1.51e+01 1.13e+01  -6.0 3.99e+03    -  6.41e-01 1.00e+00h  1
  69 -1.3619955e-01 1.53e+00 1.23e+01  -6.0 1.03e+03    -  4.11e-01 1.00e+00h  1
iter    objective    inf_pr   inf_du lg(mu)  ||d||  lg(rg) alpha_du alpha_pr  ls
  70 -1.3622222e-01 1.73e+00 1.06e+01  -6.0 8.65e+03    -  5.46e-02 2.09e-02h  3
  71 -1.3625251e-01 2.56e+00 1.51e+01  -6.0 4.99e+03    -  1.13e-01 6.68e-02h  2
  72 -1.3626043e-01 2.75e+00 1.78e+01  -6.0 6.27e+03    -  5.45e-02 3.85e-02h  2
  73 -1.3644311e-01 3.89e+00 3.49e+01  -6.0 6.08e+02  -9.6 1.41e-01 3.18e-01h  1
  74 -1.3657256e-01 1.60e+00 2.42e+01  -6.0 4.45e+02 -10.1 3.85e-01 6.22e-01h  1
  75 -1.3646806e-01 6.29e-01 3.32e+01  -6.0 1.36e+02  -9.7 1.56e-02 1.00e+00h  1
  76 -1.3645141e-01 1.95e-01 1.41e+01  -6.0 7.21e+01  -8.4 1.00e+00 1.00e+00h  1
  77 -1.3652651e-01 5.03e+00 1.33e+01  -6.0 8.32e+01  -7.9 1.33e-01 1.00e+00h  1
  78 -1.3655467e-01 1.16e-01 3.94e+00  -6.0 7.43e+01  -8.4 7.96e-01 1.00e+00h  1
  79 -1.3651612e-01 1.12e-01 5.79e+00  -6.0 2.53e+01  -8.9 1.00e+00 9.54e-01H  1
iter    objective    inf_pr   inf_du lg(mu)  ||d||  lg(rg) alpha_du alpha_pr  ls
  80 -1.3652081e-01 6.78e-01 2.08e+00  -6.0 8.40e+01  -9.4 1.00e+00 1.00e+00f  1
  81 -1.3647966e-01 1.68e+00 1.50e+00  -6.0 3.12e+02  -9.8 1.00e+00 1.00e+00h  1
  82 -1.3644930e-01 1.68e+00 3.88e+00  -6.0 1.10e+04 -10.3 3.01e-02 8.41e-03h  3
  83 -1.3643447e-01 2.18e-01 3.57e-01  -6.0 4.48e+01  -9.0 1.00e+00 1.00e+00h  1
  84 -1.3640106e-01 1.43e+00 6.47e+00  -6.0 4.60e+02  -9.5 9.92e-01 2.54e-01h  2
  85 -1.3638262e-01 7.47e-01 1.06e+00  -6.0 1.12e+02  -9.0 1.00e+00 1.00e+00h  1
  86 -1.3635970e-01 3.57e+00 5.50e+00  -6.0 5.93e+02  -9.5 1.00e+00 4.57e-01h  1
  87 -1.3635633e-01 3.43e+00 5.22e+01  -6.0 6.20e+03    -  2.32e-01 4.98e-02h  1
  88 -1.3633148e-01 3.02e+01 6.50e+01  -6.0 4.16e+03    -  5.19e-01 3.17e-01h  1
  89 -1.3642222e-01 1.97e+01 7.71e+02  -6.0 1.19e+03    -  6.31e-02 5.49e-01h  1
iter    objective    inf_pr   inf_du lg(mu)  ||d||  lg(rg) alpha_du alpha_pr  ls
  90 -1.3648187e-01 1.43e-01 1.35e+01  -6.0 5.07e+02 -10.0 9.02e-01 1.00e+00h  1
  91 -1.3659132e-01 6.99e-01 1.27e+00  -6.0 6.61e+02 -10.5 1.00e+00 1.00e+00h  1
  92 -1.3659161e-01 6.98e-01 1.16e+02  -6.0 3.32e+04 -11.0 5.35e-02 8.88e-04h  5
  93 -1.3671425e-01 1.34e+00 1.92e+00  -6.0 7.44e+02    -  1.00e+00 1.00e+00h  1
  94 -1.3671589e-01 1.24e+00 9.91e+01  -6.0 1.47e+03 -10.5 1.00e+00 7.35e-02h  3
  95 -1.3671851e-01 2.23e-01 3.02e-01  -6.0 1.14e+02    -  1.00e+00 1.00e+00h  1
  96 -1.3672539e-01 3.52e-01 6.45e+00  -6.0 2.36e+02 -10.1 1.00e+00 5.00e-01h  2
  97 -1.3672388e-01 8.12e-01 2.78e+01  -6.0 6.52e+02 -10.6 1.00e+00 2.76e-01h  2
  98 -1.3671377e-01 1.54e+00 4.56e+01  -6.0 9.74e+02    -  1.00e+00 2.39e-01h  2
  99 -1.3668032e-01 6.22e-01 5.72e+00  -6.0 5.93e+02    -  1.00e+00 7.54e-01H  1
iter    objective    inf_pr   inf_du lg(mu)  ||d||  lg(rg) alpha_du alpha_pr  ls
 100 -1.3666926e-01 3.31e-01 2.97e-01  -6.0 1.43e+02    -  1.00e+00 1.00e+00h  1
 101 -1.3666869e-01 1.51e-03 1.27e-03  -6.0 9.95e+00    -  1.00e+00 1.00e+00h  1
 102 -1.3666868e-01 1.55e-08 1.56e-08  -6.0 3.24e-02    -  1.00e+00 1.00e+00h  1
 103 -1.3735311e-01 1.03e+01 7.88e+01  -7.5 3.81e+03    -  1.04e-01 1.90e-01f  1
 104 -1.3757890e-01 9.36e+00 7.59e+01  -7.5 3.49e+03    -  9.37e-02 1.08e-01h  1
 105 -1.3771712e-01 9.39e+00 2.96e+01  -7.5 3.23e+03    -  2.48e-01 8.09e-02h  1
 106 -1.3792647e-01 1.12e+01 3.41e+01  -7.5 3.06e+03    -  2.63e-01 1.42e-01h  1
 107 -1.3792824e-01 1.11e+01 8.53e+01  -7.5 6.41e+02  -9.2 3.67e-01 1.95e-03h  1
 108 -1.3815263e-01 1.67e+01 5.28e+01  -7.5 3.46e+03    -  5.66e-03 1.97e-01h  1
 109 -1.3815812e-01 1.65e+01 6.50e+01  -7.5 2.81e+02  -9.7 1.70e-01 1.17e-02h  1
iter    objective    inf_pr   inf_du lg(mu)  ||d||  lg(rg) alpha_du alpha_pr  ls
 110 -1.3822700e-01 3.14e+01 6.70e+01  -7.5 2.25e+03  -9.3 3.80e-04 3.83e-02h  1
 111 -1.3854190e-01 2.34e+01 4.73e+01  -7.5 2.76e+03    -  1.22e-02 3.62e-01h  1
 112 -1.3867367e-01 1.80e+01 6.59e+01  -7.5 1.67e+03    -  8.79e-02 2.61e-01h  1
 113 -1.3881751e-01 9.86e+00 1.06e+02  -7.5 2.21e+02  -9.8 2.72e-01 4.55e-01h  1
 114 -1.3882537e-01 9.63e+00 2.03e+02  -7.5 4.91e+02 -10.3 5.23e-01 2.32e-02h  1
 115 -1.3899286e-01 9.83e+00 5.34e+01  -7.5 9.68e+02 -10.7 1.27e-01 5.73e-01h  1
 116 -1.3899696e-01 9.62e+00 5.27e+01  -7.5 2.43e+03    -  2.07e-02 2.12e-02h  1
 117 -1.3911866e-01 5.18e+00 4.98e+02  -7.5 1.06e+03    -  2.20e-01 6.96e-01h  1
 118 -1.3917019e-01 2.27e+01 9.78e+02  -7.5 3.35e+03    -  5.13e-02 2.98e-01h  1
 119 -1.3924875e-01 1.22e+01 3.79e+02  -7.5 6.18e+02    -  5.78e-01 5.63e-01h  1
iter    objective    inf_pr   inf_du lg(mu)  ||d||  lg(rg) alpha_du alpha_pr  ls
 120 -1.3940057e-01 1.07e+00 1.23e+03  -7.5 2.44e+02    -  8.31e-01 1.00e+00h  1
 121 -1.3940978e-01 1.03e+00 5.19e+03  -7.5 5.05e+03    -  2.04e-01 3.37e-02h  1
 122 -1.3942333e-01 9.87e-01 1.83e+04  -7.5 4.61e+02    -  4.02e-01 4.69e-02h  1
 123 -1.3942627e-01 3.39e+00 1.11e+06  -7.5 1.68e+04    -  8.64e-04 3.06e-02h  1
 124 -1.3956020e-01 2.95e+00 1.04e+04  -7.5 2.24e+02 -11.2 5.65e-02 1.00e+00h  1
 125 -1.3954481e-01 3.28e-01 2.65e+01  -7.5 1.01e+02    -  8.36e-01 1.00e+00h  1
 126 -1.3962407e-01 2.50e-01 1.98e+01  -7.5 1.62e+02 -11.7 2.29e-01 2.03e-01h  1
 127 -1.3966534e-01 9.56e+00 1.67e+01  -7.5 7.14e+02 -12.2 1.25e-01 1.00e+00h  1
 128 -1.3967892e-01 9.17e+00 1.60e+01  -7.5 9.04e+01  -8.1 6.66e-02 4.00e-02h  1
 129 -1.3967970e-01 9.05e+00 4.33e+01  -7.5 1.09e+03    -  1.00e+00 1.40e-02h  1
iter    objective    inf_pr   inf_du lg(mu)  ||d||  lg(rg) alpha_du alpha_pr  ls
 130 -1.3973537e-01 8.07e+00 1.03e+01  -7.5 8.19e+02    -  1.00e+00 1.00e+00h  1
 131 -1.3975247e-01 5.76e+00 2.36e+01  -7.5 2.18e+01  -8.6 4.98e-01 2.86e-01h  1
 132 -1.3980331e-01 9.25e-01 6.74e+03  -7.5 1.86e+01  -9.1 2.93e-03 8.39e-01h  1
 133 -1.3986979e-01 6.12e-02 9.73e+03  -7.5 1.39e+01  -9.6 3.48e-01 1.00e+00h  1
 134 -1.3988252e-01 5.95e-02 8.19e+03  -7.5 1.76e+01 -10.0 5.66e-01 1.54e-01h  1
 135 -1.3991499e-01 8.32e-02 4.67e+03  -7.5 3.66e+01 -10.5 8.43e-01 3.91e-01h  1
 136 -1.3995095e-01 1.51e-01 2.21e+03  -7.5 8.45e+01 -11.0 5.28e-01 4.09e-01h  1
 137 -1.3995438e-01 1.60e-01 2.13e+03  -7.5 2.11e+02 -11.5 2.90e-01 3.29e-02h  1
 138 -1.3996017e-01 1.94e-01 2.02e+03  -7.5 6.47e+02 -11.0 5.04e-02 5.78e-02h  1
 139 -1.3997315e-01 1.36e-01 1.81e+03  -7.5 6.63e+02 -10.6 1.14e-01 1.26e-01f  1
iter    objective    inf_pr   inf_du lg(mu)  ||d||  lg(rg) alpha_du alpha_pr  ls
 140 -1.3997785e-01 1.31e-01 1.74e+03  -7.5 8.50e+02 -11.1 4.53e-02 4.36e-02h  1
 141 -1.3997810e-01 6.88e-01 1.73e+03  -7.5 8.64e+03 -11.6 1.02e-01 7.11e-03h  1
 142 -1.3998294e-01 7.15e-01 1.54e+03  -7.5 2.51e+03 -12.0 9.24e-02 9.28e-02h  1
 143 -1.3998670e-01 4.70e+00 1.55e+03  -7.5 3.29e+03    -  2.13e-02 2.67e-01H  1
 144 -1.4000166e-01 1.72e+00 3.89e+04  -7.5 1.04e+02    -  1.08e-01 6.34e-01h  1
 145 -1.3999989e-01 1.06e+00 1.91e+04  -7.5 1.32e+02    -  5.84e-01 3.70e-01h  1
 146 -1.3999590e-01 1.16e-02 5.36e+05  -7.5 2.04e+01  -9.8 8.65e-03 1.00e+00h  1
 147 -1.3999666e-01 6.76e-01 4.32e+05  -7.5 5.81e+02    -  7.47e-01 2.04e-01h  1
 148 -1.3999905e-01 1.19e+00 3.01e+03  -7.5 3.18e+02    -  1.28e-01 1.00e+00h  1
 149 -1.3999983e-01 7.80e-01 1.31e+03  -7.5 1.95e+01  -8.5 1.67e-01 3.43e-01h  1
iter    objective    inf_pr   inf_du lg(mu)  ||d||  lg(rg) alpha_du alpha_pr  ls
 150 -1.4000101e-01 6.36e-01 2.71e+03  -7.5 6.85e+01    -  1.47e-01 1.85e-01h  1
 151 -1.4000433e-01 5.68e-01 4.80e+03  -7.5 3.65e+02    -  1.70e-01 1.88e-01h  1
 152 -1.4001375e-01 6.59e-01 6.53e+04  -7.5 2.61e+02    -  9.40e-01 8.43e-01f  1
 153 -1.4001070e-01 2.76e-01 1.61e+04  -7.5 1.01e+02    -  9.38e-01 6.61e-01h  1
 154 -1.4001066e-01 2.66e-01 1.56e+04  -7.5 1.82e+01    -  4.38e-01 3.60e-02h  1
 155 -1.4001383e-01 3.27e-01 7.84e+03  -7.5 2.57e+02    -  1.00e+00 5.00e-01h  2
 156 -1.4001444e-01 1.98e-01 2.50e+00  -7.5 7.48e+01    -  8.19e-01 1.00e+00h  1
 157 -1.4001367e-01 1.40e-01 2.21e-01  -7.5 4.07e+01    -  1.00e+00 1.00e+00h  1
 158 -1.4001363e-01 6.45e-06 7.15e-04  -7.5 7.40e-01    -  1.00e+00 1.00e+00h  1
 159 -1.4001363e-01 6.52e-07 7.42e-07  -7.5 1.29e-01    -  1.00e+00 1.00e+00h  1
iter    objective    inf_pr   inf_du lg(mu)  ||d||  lg(rg) alpha_du alpha_pr  ls
 160 -1.4001363e-01 2.68e-10 3.34e-12  -7.5 2.40e-04    -  1.00e+00 1.00e+00h  1
 161 -1.4002398e-01 2.36e+00 3.98e+00  -9.0 5.94e+02    -  2.40e-01 4.34e-01h  1
 162 -1.4002465e-01 2.26e+00 3.61e+00  -9.0 1.74e+03    -  1.41e-01 2.95e-02h  1
 163 -1.4002796e-01 2.74e+00 5.47e+00  -9.0 1.26e+03    -  3.48e-01 2.10e-01h  1
 164 -1.4003399e-01 5.42e+00 1.59e+01  -9.0 1.33e+03    -  9.27e-02 4.66e-01h  1
 165 -1.4004145e-01 1.72e+01 6.39e+00  -9.0 2.30e+03    -  2.11e-02 4.68e-01h  1
 166 -1.4004139e-01 1.59e+01 6.27e+00  -9.0 3.40e+01  -9.0 4.21e-02 7.78e-02h  1
 167 -1.4004118e-01 1.16e+01 3.75e+00  -9.0 4.39e+01  -9.4 1.66e-01 2.69e-01h  1
 168 -1.4004077e-01 2.85e-02 5.83e+00  -9.0 4.02e+01  -9.9 7.42e-01 1.00e+00h  1
 169 -1.4004866e-01 2.06e+01 7.12e+00  -9.0 3.80e+03    -  1.80e-01 3.34e-01h  1
iter    objective    inf_pr   inf_du lg(mu)  ||d||  lg(rg) alpha_du alpha_pr  ls
 170 -1.4004745e-01 2.05e+01 2.20e+01  -9.0 6.28e+03    -  5.81e-04 3.56e-02h  2
 171 -1.4004978e-01 2.22e+01 2.21e+01  -9.0 1.18e+04    -  3.83e-02 3.66e-02h  1
 172 -1.4006126e-01 7.88e+01 1.98e+01  -9.0 4.78e+03    -  3.72e-01 4.65e-01h  1
 173 -1.4006131e-01 1.81e+00 1.99e+03  -9.0 3.44e+02    -  1.93e-02 1.00e+00h  1
 174 -1.4006212e-01 1.60e+00 1.29e+03  -9.0 4.68e+02    -  3.88e-01 3.88e-01h  1
 175 -1.4006677e-01 1.71e+01 9.36e+02  -9.0 1.07e+03    -  5.81e-01 1.00e+00h  1
 176 -1.4007356e-01 6.00e+01 7.04e+02  -9.0 2.15e+04    -  2.02e-01 7.83e-02h  1
 177 -1.4007938e-01 5.25e+01 3.13e+02  -9.0 1.71e+03    -  1.00e+00 1.00e+00h  1
 178 -1.4008441e-01 3.92e+01 7.07e+01  -9.0 1.60e+03    -  1.36e-02 1.00e+00h  1
 179 -1.4008640e-01 3.81e+01 5.85e+01  -9.0 4.26e+03    -  1.40e-02 1.53e-01h  1
iter    objective    inf_pr   inf_du lg(mu)  ||d||  lg(rg) alpha_du alpha_pr  ls
 180 -1.4008953e-01 1.67e+01 3.46e+01  -9.0 1.00e+03    -  2.25e-01 1.00e+00h  1
 181 -1.4009190e-01 1.45e+01 1.80e+01  -9.0 1.23e+03    -  9.40e-01 4.80e-01h  1
 182 -1.4008935e-01 3.88e-01 5.99e-02  -9.0 1.38e+02    -  1.00e+00 1.00e+00h  1
 183 -1.4008939e-01 2.48e-03 2.33e-04  -9.0 1.17e+01    -  1.00e+00 1.00e+00h  1
 184 -1.4008939e-01 4.29e-09 2.01e-09  -9.0 1.49e-02    -  1.00e+00 1.00e+00h  1

Number of Iterations....: 184

                                   (scaled)                 (unscaled)
Objective...............:  -1.4008938559452877e-01   -1.4008938559452877e-01
Dual infeasibility......:   2.0093867958426159e-09    2.0093867958426159e-09
Constraint violation....:   2.1076178197931755e-09    4.2891770135611296e-09
Complementarity.........:   9.0909092108727429e-10    9.0909092108727429e-10
Overall NLP error.......:   2.1076178197931755e-09    4.2891770135611296e-09


Number of objective function evaluations             = 228
Number of objective gradient evaluations             = 185
Number of equality constraint evaluations            = 228
Number of inequality constraint evaluations          = 229
Number of equality constraint Jacobian evaluations   = 185
Number of inequality constraint Jacobian evaluations = 185
Number of Lagrangian Hessian evaluations             = 184
Total CPU secs in IPOPT (w/o function evaluations)   =    113.675
Total CPU secs in NLP function evaluations           =      3.074

EXIT: Optimal Solution Found.
